grid = [|
   1,  1,  0,  0,  2,  3 |
   4,  1,  5,  0,  6,  6 |
   7,  8,  9,  0, 10, 11 |
  12,  8,  0, 13, 14, 11 |
  12,  8,  0, 15, 14, 11 |
  16, 16,  0,  0, 14, 14
|];

regions = [
  (r_type: Equal, total: 0),
  (r_type: TotalGreaterThan, total: 4),
  (r_type: Empty, total: 0),
  (r_type: TotalEquals, total: 0),
  (r_type: TotalEquals, total: 0),
  (r_type: TotalEquals, total: 2),
  (r_type: TotalGreaterThan, total: 4),
  (r_type: Equal, total: 0),
  (r_type: TotalLessThan, total: 2),
  (r_type: TotalEquals, total: 4),
  (r_type: TotalEquals, total: 18),
  (r_type: TotalEquals, total: 4),
  (r_type: TotalGreaterThan, total: 2),
  (r_type: Equal, total: 0),
  (r_type: TotalLessThan, total: 2),
  (r_type: TotalEquals, total: 0)
];

dominoes = [|
  0, 4 |
  6, 4 |
  0, 2 |
  3, 4 |
  4, 2 |

  3, 3 |
  0, 1 |
  6, 6 |
  1, 5 |
  3, 2 |

  1, 3 |
  2, 2 |
  0, 5 |
  1, 2
|];
